problems/csplib-prob001/CarSequencing-models/noch/O2/lingeling/model-random24-solution000001.eprime-solution
language ESSENCE' 1.0

letting car_Function1D be
        [16, 18, 2, 9, 5, 21, 14, 22, 5, 14, 2, 11, 2, 14, 5, 18, 2, 2, 5, 14, 9, 2, 14, 17, 5, 9, 16, 6, 1, 2, 14, 21,
         1, 6, 2, 5, 2, 6, 5, 3, 6, 5, 2, 6, 10, 6, 14, 2, 18, 2, 5, 6, 16, 5, 2, 14, 5, 20, 14, 6, 2, 6, 2, 1, 6, 2,
         15, 6, 16, 5, 2, 18, 5, 14, 20, 5, 16, 6, 18, 5, 9, 2, 11, 3, 14, 5, 9, 2, 8, 19, 6, 14, 10, 6, 14, 7, 2, 19,
         14, 6, 14, 4, 2, 16, 6, 5, 6, 2, 2, 6, 5, 7, 2, 2, 14, 6, 14, 5, 16, 16, 18, 5, 14, 6, 2, 7, 14, 2, 5, 2, 6,
         14, 6, 2, 18, 11, 14, 2, 6, 1, 2, 9, 1, 6, 2, 1, 6, 2, 5, 6, 2, 6, 14, 13, 6, 2, 5, 9, 14, 10, 9, 2, 12, 14, 2,
         4, 14, 2, 11, 14, 6, 2, 6, 2, 5, 8, 2, 5, 16, 9, 18, 11, 14, 6, 2, 2, 9, 1, 6, 2, 3, 5, 14, 6, 2, 5, 9, 2, 1,
         2; int(1..200)]
